Maximize
  - 3.0797540321865 edge_0_1_0_0 - 0.61798435901635 edge_0_5_0_0
   - 2.2056080221283 edge_0_7_0_0 - 0.75307739523564 edge_0_10_0_0
   - 0.7765529655385722 edge_1_2_0_0 - 0.7780041257450487 edge_1_3_0_0
   - 1.121205147090705 edge_1_4_0_0 + 0.0927183117474578 edge_1_5_0_0
   - 0.3650517045082327 edge_1_7_0_0 - 1.075313086417906 edge_1_10_0_0
   - 1.90094291670246 edge_1_15_0_0 - 1.746243963429456 edge_1_17_0_0
   - 0.5172499401640771 edge_2_1_0_0 + 0.7577078406404684 edge_2_3_0_0
   + 0.3160153182647952 edge_2_4_0_0 - 0.5034333757212234 edge_2_5_0_0
   + 0.1811568459954989 edge_2_7_0_0 - 0.1027694239464698 edge_2_8_0_0
   - 0.2677143334470771 edge_2_10_0_0 + 0.4762931687608 edge_3_1_0_0
   + 2.599723846667129 edge_3_2_0_0 + 2.70170767032785 edge_3_4_0_0
   + 0.270484680888089 edge_3_5_0_0 + 1.091264166346546 edge_3_7_0_0
   + 0.7474195243932843 edge_3_8_0_0 + 0.5651450052979419 edge_3_10_0_0
   + 0.647738254920221 edge_3_12_0_0 + 1.051488435607231 edge_3_13_0_0
   + 0.3443656928160297 edge_3_14_0_0 + 1.085150592172119 edge_3_16_0_0
   - 0.0319206273808962 edge_3_18_0_0 + 0.1832918940011899 edge_3_19_0_0
   - 0.3181223245006479 edge_4_1_0_0 + 1.406643869773076 edge_4_2_0_0
   + 1.239131412652986 edge_4_3_0_0 - 0.00788829569328478 edge_4_5_0_0
   + 0.2787408313893571 edge_4_7_0_0 + 0.3490202378990316 edge_4_8_0_0
   + 0.3531342191983908 edge_4_10_0_0 - 0.1851847004333882 edge_4_12_0_0
   + 0.2612758212195325 edge_4_13_0_0 + 0.1286106602009605 edge_4_14_0_0
   + 0.3351582744709157 edge_4_16_0_0 - 1.004793993357777 edge_4_18_0_0
   - 0.2275729868806182 edge_4_19_0_0 + 0.4753703955665136 edge_5_1_0_0
   + 0.7993719221115922 edge_5_2_0_0 + 1.340515154860485 edge_5_3_0_0
   + 1.381040074996312 edge_5_4_0_0 + 1.163422305216748 edge_5_7_0_0
   + 0.4462649468660466 edge_5_8_0_0 + 0.8493340094122414 edge_5_10_0_0
   + 0.1525305621070503 edge_5_12_0_0 + 1.405661017204657 edge_5_13_0_0
   + 1.319473956153705 edge_5_14_0_0 - 0.7097741383053129 edge_5_15_0_0
   - 0.0185482494311601 edge_5_16_0_0 - 0.633701931944285 edge_5_17_0_0
   - 0.6563581765535206 edge_5_18_0_0 + 0.1413386863548171 edge_5_19_0_0
   + 0.0748042018409289 edge_7_1_0_0 + 0.1990321482157376 edge_7_2_0_0
   + 0.3981370396278093 edge_7_3_0_0 + 0.2103181227346766 edge_7_4_0_0
   + 0.0534165043324002 edge_7_5_0_0 + 0.1180420193433833 edge_7_8_0_0
   + 0.1137528573036781 edge_7_10_0_0 - 0.2976343040913697 edge_7_12_0_0
   - 0.3549023097354556 edge_7_14_0_0 - 0.194142876630224 edge_7_16_0_0
   - 0.5069161948841937 edge_7_18_0_0 + 0.00437804416191805 edge_7_19_0_0
   - 0.2257986847012794 edge_8_2_0_0 - 0.5468555241984391 edge_8_3_0_0
   - 0.276785338963672 edge_8_4_0_0 - 0.2010889494239657 edge_8_10_0_0
   - 0.562969572007428 edge_10_1_0_0 + 0.5949133113317289 edge_10_2_0_0
   + 0.4871304882259178 edge_10_3_0_0 + 0.6556477862098147 edge_10_4_0_0
   + 0.405905844224042 edge_10_5_0_0 + 0.2481143934290085 edge_10_7_0_0
   + 0.0904833722722435 edge_10_8_0_0 + 1.260797865524509 edge_10_12_0_0
   + 2.223701514038978 edge_10_13_0_0 + 2.21423260780365 edge_10_14_0_0
   + 0.6145870553729504 edge_10_15_0_0 + 1.17726190961684 edge_10_16_0_0
   + 0.8072058523738138 edge_10_17_0_0 + 1.508866128289271 edge_10_18_0_0
   + 0.7040620040716472 edge_10_19_0_0 - 0.1079194632027935 edge_12_13_0_0
   - 0.2480175350138179 edge_12_14_0_0 - 0.849061121554516 edge_12_15_0_0
   - 0.0425820500298309 edge_12_17_0_0 - 0.1769746376773427 edge_13_12_0_0
   - 0.1647689206749527 edge_13_14_0_0 - 0.7133477299745465 edge_13_15_0_0
   - 0.5610005532156341 edge_13_17_0_0 - 1.369652204693977 edge_13_18_0_0
   - 0.6226021720637228 edge_14_2_0_0 - 1.188599789644688 edge_14_3_0_0
   - 1.344010924134911 edge_14_4_0_0 - 0.4016387540991389 edge_14_5_0_0
   - 0.7836605558782105 edge_14_7_0_0 - 0.1541907687421286 edge_14_8_0_0
   + 0.0975447242086217 edge_14_12_0_0 + 0.3441724379879774 edge_14_13_0_0
   + 2.213404724483101 edge_14_15_0_0 - 0.2132529003539647 edge_14_16_0_0
   + 0.857322420957449 edge_14_17_0_0 + 0.2014028639733022 edge_14_18_0_0
   + 0.3884891511804613 edge_14_19_0_0 + 0.0482320390540506 edge_15_13_0_0
   - 0.3923331971409805 edge_15_17_0_0 + 0.1221396250638385 edge_15_19_0_0
   - 1.055800128219247 edge_16_17_0_0 - 0.1283547942286422 edge_16_18_0_0
   - 0.2069236989925305 edge_17_1_0_0 + 0.5164247633263995 edge_17_12_0_0
   + 0.2911725145723216 edge_17_13_0_0 + 0.6772412281062612 edge_17_14_0_0
   - 0.3272089004488212 edge_17_15_0_0 + 0.4823718923129404 edge_17_16_0_0
   + 0.3834043938635162 edge_17_18_0_0 - 0.0384449797698788 edge_17_19_0_0
   - 1.186123182473169 edge_18_2_0_0 - 0.5818866758539832 edge_18_3_0_0
   - 1.067870081324875 edge_18_4_0_0 - 0.3886617133621056 edge_18_5_0_0
   - 1.295144251133054 edge_18_7_0_0 - 0.6664552616085623 edge_18_8_0_0
   + 0.7595814343578577 edge_18_12_0_0 + 0.8571919099769593 edge_18_13_0_0
   + 1.186938357645652 edge_18_14_0_0 + 0.0942313736901037 edge_18_15_0_0
   + 0.8608675365527488 edge_18_16_0_0 + 0.9079501490312212 edge_18_17_0_0
   + 0.5683409326138209 edge_18_19_0_0 + 0.1949435007637261 edge_19_15_0_0
Subject To
 one_parent_1: edge_0_1_0_0 + edge_2_1_0_0 + edge_3_1_0_0 + edge_4_1_0_0
   + edge_5_1_0_0 + edge_7_1_0_0 + edge_10_1_0_0 + edge_17_1_0_0 = 1
 consume_one_flow_unit_1: flow_0_1_0_0 - flow_1_2_0_0 - flow_1_3_0_0
   - flow_1_4_0_0 - flow_1_5_0_0 - flow_1_7_0_0 - flow_1_10_0_0
   - flow_1_15_0_0 - flow_1_17_0_0 + flow_2_1_0_0 + flow_3_1_0_0
   + flow_4_1_0_0 + flow_5_1_0_0 + flow_7_1_0_0 + flow_10_1_0_0
   + flow_17_1_0_0 = 1
 one_parent_2: edge_1_2_0_0 + edge_3_2_0_0 + edge_4_2_0_0 + edge_5_2_0_0
   + edge_7_2_0_0 + edge_8_2_0_0 + edge_10_2_0_0 + edge_14_2_0_0
   + edge_18_2_0_0 = 1
 consume_one_flow_unit_2: flow_1_2_0_0 - flow_2_1_0_0 - flow_2_3_0_0
   - flow_2_4_0_0 - flow_2_5_0_0 - flow_2_7_0_0 - flow_2_8_0_0
   - flow_2_10_0_0 + flow_3_2_0_0 + flow_4_2_0_0 + flow_5_2_0_0
   + flow_7_2_0_0 + flow_8_2_0_0 + flow_10_2_0_0 + flow_14_2_0_0
   + flow_18_2_0_0 = 1
 one_parent_3: edge_1_3_0_0 + edge_2_3_0_0 + edge_4_3_0_0 + edge_5_3_0_0
   + edge_7_3_0_0 + edge_8_3_0_0 + edge_10_3_0_0 + edge_14_3_0_0
   + edge_18_3_0_0 = 1
 consume_one_flow_unit_3: flow_1_3_0_0 + flow_2_3_0_0 - flow_3_1_0_0
   - flow_3_2_0_0 - flow_3_4_0_0 - flow_3_5_0_0 - flow_3_7_0_0
   - flow_3_8_0_0 - flow_3_10_0_0 - flow_3_12_0_0 - flow_3_13_0_0
   - flow_3_14_0_0 - flow_3_16_0_0 - flow_3_18_0_0 - flow_3_19_0_0
   + flow_4_3_0_0 + flow_5_3_0_0 + flow_7_3_0_0 + flow_8_3_0_0
   + flow_10_3_0_0 + flow_14_3_0_0 + flow_18_3_0_0 = 1
 one_parent_4: edge_1_4_0_0 + edge_2_4_0_0 + edge_3_4_0_0 + edge_5_4_0_0
   + edge_7_4_0_0 + edge_8_4_0_0 + edge_10_4_0_0 + edge_14_4_0_0
   + edge_18_4_0_0 = 1
 consume_one_flow_unit_4: flow_1_4_0_0 + flow_2_4_0_0 + flow_3_4_0_0
   - flow_4_1_0_0 - flow_4_2_0_0 - flow_4_3_0_0 - flow_4_5_0_0
   - flow_4_7_0_0 - flow_4_8_0_0 - flow_4_10_0_0 - flow_4_12_0_0
   - flow_4_13_0_0 - flow_4_14_0_0 - flow_4_16_0_0 - flow_4_18_0_0
   - flow_4_19_0_0 + flow_5_4_0_0 + flow_7_4_0_0 + flow_8_4_0_0
   + flow_10_4_0_0 + flow_14_4_0_0 + flow_18_4_0_0 = 1
 one_parent_5: edge_0_5_0_0 + edge_1_5_0_0 + edge_2_5_0_0 + edge_3_5_0_0
   + edge_4_5_0_0 + edge_7_5_0_0 + edge_10_5_0_0 + edge_14_5_0_0
   + edge_18_5_0_0 = 1
 consume_one_flow_unit_5: flow_0_5_0_0 + flow_1_5_0_0 + flow_2_5_0_0
   + flow_3_5_0_0 + flow_4_5_0_0 - flow_5_1_0_0 - flow_5_2_0_0
   - flow_5_3_0_0 - flow_5_4_0_0 - flow_5_7_0_0 - flow_5_8_0_0
   - flow_5_10_0_0 - flow_5_12_0_0 - flow_5_13_0_0 - flow_5_14_0_0
   - flow_5_15_0_0 - flow_5_16_0_0 - flow_5_17_0_0 - flow_5_18_0_0
   - flow_5_19_0_0 + flow_7_5_0_0 + flow_10_5_0_0 + flow_14_5_0_0
   + flow_18_5_0_0 = 1
 one_parent_6: = 1
 consume_one_flow_unit_6: = 1
 one_parent_7: edge_0_7_0_0 + edge_1_7_0_0 + edge_2_7_0_0 + edge_3_7_0_0
   + edge_4_7_0_0 + edge_5_7_0_0 + edge_10_7_0_0 + edge_14_7_0_0
   + edge_18_7_0_0 = 1
 consume_one_flow_unit_7: flow_0_7_0_0 + flow_1_7_0_0 + flow_2_7_0_0
   + flow_3_7_0_0 + flow_4_7_0_0 + flow_5_7_0_0 - flow_7_1_0_0
   - flow_7_2_0_0 - flow_7_3_0_0 - flow_7_4_0_0 - flow_7_5_0_0
   - flow_7_8_0_0 - flow_7_10_0_0 - flow_7_12_0_0 - flow_7_14_0_0
   - flow_7_16_0_0 - flow_7_18_0_0 - flow_7_19_0_0 + flow_10_7_0_0
   + flow_14_7_0_0 + flow_18_7_0_0 = 1
 one_parent_8: edge_2_8_0_0 + edge_3_8_0_0 + edge_4_8_0_0 + edge_5_8_0_0
   + edge_7_8_0_0 + edge_10_8_0_0 + edge_14_8_0_0 + edge_18_8_0_0 = 1
 consume_one_flow_unit_8: flow_2_8_0_0 + flow_3_8_0_0 + flow_4_8_0_0
   + flow_5_8_0_0 + flow_7_8_0_0 - flow_8_2_0_0 - flow_8_3_0_0
   - flow_8_4_0_0 - flow_8_10_0_0 + flow_10_8_0_0 + flow_14_8_0_0
   + flow_18_8_0_0 = 1
 one_parent_9: = 1
 consume_one_flow_unit_9: = 1
 one_parent_10: edge_0_10_0_0 + edge_1_10_0_0 + edge_2_10_0_0
   + edge_3_10_0_0 + edge_4_10_0_0 + edge_5_10_0_0 + edge_7_10_0_0
   + edge_8_10_0_0 = 1
 consume_one_flow_unit_10: flow_0_10_0_0 + flow_1_10_0_0 + flow_2_10_0_0
   + flow_3_10_0_0 + flow_4_10_0_0 + flow_5_10_0_0 + flow_7_10_0_0
   + flow_8_10_0_0 - flow_10_1_0_0 - flow_10_2_0_0 - flow_10_3_0_0
   - flow_10_4_0_0 - flow_10_5_0_0 - flow_10_7_0_0 - flow_10_8_0_0
   - flow_10_12_0_0 - flow_10_13_0_0 - flow_10_14_0_0 - flow_10_15_0_0
   - flow_10_16_0_0 - flow_10_17_0_0 - flow_10_18_0_0 - flow_10_19_0_0 = 1
 one_parent_11: = 1
 consume_one_flow_unit_11: = 1
 one_parent_12: edge_3_12_0_0 + edge_4_12_0_0 + edge_5_12_0_0
   + edge_7_12_0_0 + edge_10_12_0_0 + edge_13_12_0_0 + edge_14_12_0_0
   + edge_17_12_0_0 + edge_18_12_0_0 = 1
 consume_one_flow_unit_12: flow_3_12_0_0 + flow_4_12_0_0 + flow_5_12_0_0
   + flow_7_12_0_0 + flow_10_12_0_0 - flow_12_13_0_0 - flow_12_14_0_0
   - flow_12_15_0_0 - flow_12_17_0_0 + flow_13_12_0_0 + flow_14_12_0_0
   + flow_17_12_0_0 + flow_18_12_0_0 = 1
 one_parent_13: edge_3_13_0_0 + edge_4_13_0_0 + edge_5_13_0_0
   + edge_10_13_0_0 + edge_12_13_0_0 + edge_14_13_0_0 + edge_15_13_0_0
   + edge_17_13_0_0 + edge_18_13_0_0 = 1
 consume_one_flow_unit_13: flow_3_13_0_0 + flow_4_13_0_0 + flow_5_13_0_0
   + flow_10_13_0_0 + flow_12_13_0_0 - flow_13_12_0_0 - flow_13_14_0_0
   - flow_13_15_0_0 - flow_13_17_0_0 - flow_13_18_0_0 + flow_14_13_0_0
   + flow_15_13_0_0 + flow_17_13_0_0 + flow_18_13_0_0 = 1
 one_parent_14: edge_3_14_0_0 + edge_4_14_0_0 + edge_5_14_0_0
   + edge_7_14_0_0 + edge_10_14_0_0 + edge_12_14_0_0 + edge_13_14_0_0
   + edge_17_14_0_0 + edge_18_14_0_0 = 1
 consume_one_flow_unit_14: flow_3_14_0_0 + flow_4_14_0_0 + flow_5_14_0_0
   + flow_7_14_0_0 + flow_10_14_0_0 + flow_12_14_0_0 + flow_13_14_0_0
   - flow_14_2_0_0 - flow_14_3_0_0 - flow_14_4_0_0 - flow_14_5_0_0
   - flow_14_7_0_0 - flow_14_8_0_0 - flow_14_12_0_0 - flow_14_13_0_0
   - flow_14_15_0_0 - flow_14_16_0_0 - flow_14_17_0_0 - flow_14_18_0_0
   - flow_14_19_0_0 + flow_17_14_0_0 + flow_18_14_0_0 = 1
 one_parent_15: edge_1_15_0_0 + edge_5_15_0_0 + edge_10_15_0_0
   + edge_12_15_0_0 + edge_13_15_0_0 + edge_14_15_0_0 + edge_17_15_0_0
   + edge_18_15_0_0 + edge_19_15_0_0 = 1
 consume_one_flow_unit_15: flow_1_15_0_0 + flow_5_15_0_0 + flow_10_15_0_0
   + flow_12_15_0_0 + flow_13_15_0_0 + flow_14_15_0_0 - flow_15_13_0_0
   - flow_15_17_0_0 - flow_15_19_0_0 + flow_17_15_0_0 + flow_18_15_0_0
   + flow_19_15_0_0 = 1
 one_parent_16: edge_3_16_0_0 + edge_4_16_0_0 + edge_5_16_0_0
   + edge_7_16_0_0 + edge_10_16_0_0 + edge_14_16_0_0 + edge_17_16_0_0
   + edge_18_16_0_0 = 1
 consume_one_flow_unit_16: flow_3_16_0_0 + flow_4_16_0_0 + flow_5_16_0_0
   + flow_7_16_0_0 + flow_10_16_0_0 + flow_14_16_0_0 - flow_16_17_0_0
   - flow_16_18_0_0 + flow_17_16_0_0 + flow_18_16_0_0 = 1
 one_parent_17: edge_1_17_0_0 + edge_5_17_0_0 + edge_10_17_0_0
   + edge_12_17_0_0 + edge_13_17_0_0 + edge_14_17_0_0 + edge_15_17_0_0
   + edge_16_17_0_0 + edge_18_17_0_0 = 1
 consume_one_flow_unit_17: flow_1_17_0_0 + flow_5_17_0_0 + flow_10_17_0_0
   + flow_12_17_0_0 + flow_13_17_0_0 + flow_14_17_0_0 + flow_15_17_0_0
   + flow_16_17_0_0 - flow_17_1_0_0 - flow_17_12_0_0 - flow_17_13_0_0
   - flow_17_14_0_0 - flow_17_15_0_0 - flow_17_16_0_0 - flow_17_18_0_0
   - flow_17_19_0_0 + flow_18_17_0_0 = 1
 one_parent_18: edge_3_18_0_0 + edge_4_18_0_0 + edge_5_18_0_0
   + edge_7_18_0_0 + edge_10_18_0_0 + edge_13_18_0_0 + edge_14_18_0_0
   + edge_16_18_0_0 + edge_17_18_0_0 = 1
 consume_one_flow_unit_18: flow_3_18_0_0 + flow_4_18_0_0 + flow_5_18_0_0
   + flow_7_18_0_0 + flow_10_18_0_0 + flow_13_18_0_0 + flow_14_18_0_0
   + flow_16_18_0_0 + flow_17_18_0_0 - flow_18_2_0_0 - flow_18_3_0_0
   - flow_18_4_0_0 - flow_18_5_0_0 - flow_18_7_0_0 - flow_18_8_0_0
   - flow_18_12_0_0 - flow_18_13_0_0 - flow_18_14_0_0 - flow_18_15_0_0
   - flow_18_16_0_0 - flow_18_17_0_0 - flow_18_19_0_0 = 1
 one_parent_19: edge_3_19_0_0 + edge_4_19_0_0 + edge_5_19_0_0
   + edge_7_19_0_0 + edge_10_19_0_0 + edge_14_19_0_0 + edge_15_19_0_0
   + edge_17_19_0_0 + edge_18_19_0_0 = 1
 consume_one_flow_unit_19: flow_3_19_0_0 + flow_4_19_0_0 + flow_5_19_0_0
   + flow_7_19_0_0 + flow_10_19_0_0 + flow_14_19_0_0 + flow_15_19_0_0
   + flow_17_19_0_0 + flow_18_19_0_0 - flow_19_15_0_0 = 1
 root_flow: flow_0_1_0_0 + flow_0_5_0_0 + flow_0_7_0_0 + flow_0_10_0_0
   = 19
 inactive_no_flow_0_1_0_0: flow_0_1_0_0 - 1000 edge_0_1_0_0 <= 0
 inactive_no_flow_0_5_0_0: flow_0_5_0_0 - 1000 edge_0_5_0_0 <= 0
 inactive_no_flow_0_7_0_0: flow_0_7_0_0 - 1000 edge_0_7_0_0 <= 0
 inactive_no_flow_0_10_0_0: flow_0_10_0_0 - 1000 edge_0_10_0_0 <= 0
 inactive_no_flow_1_2_0_0: flow_1_2_0_0 - 1000 edge_1_2_0_0 <= 0
 inactive_no_flow_1_3_0_0: flow_1_3_0_0 - 1000 edge_1_3_0_0 <= 0
 inactive_no_flow_1_4_0_0: flow_1_4_0_0 - 1000 edge_1_4_0_0 <= 0
 inactive_no_flow_1_5_0_0: flow_1_5_0_0 - 1000 edge_1_5_0_0 <= 0
 inactive_no_flow_1_7_0_0: flow_1_7_0_0 - 1000 edge_1_7_0_0 <= 0
 inactive_no_flow_1_10_0_0: flow_1_10_0_0 - 1000 edge_1_10_0_0 <= 0
 inactive_no_flow_1_15_0_0: flow_1_15_0_0 - 1000 edge_1_15_0_0 <= 0
 inactive_no_flow_1_17_0_0: flow_1_17_0_0 - 1000 edge_1_17_0_0 <= 0
 inactive_no_flow_2_1_0_0: flow_2_1_0_0 - 1000 edge_2_1_0_0 <= 0
 inactive_no_flow_2_3_0_0: flow_2_3_0_0 - 1000 edge_2_3_0_0 <= 0
 inactive_no_flow_2_4_0_0: flow_2_4_0_0 - 1000 edge_2_4_0_0 <= 0
 inactive_no_flow_2_5_0_0: flow_2_5_0_0 - 1000 edge_2_5_0_0 <= 0
 inactive_no_flow_2_7_0_0: flow_2_7_0_0 - 1000 edge_2_7_0_0 <= 0
 inactive_no_flow_2_8_0_0: flow_2_8_0_0 - 1000 edge_2_8_0_0 <= 0
 inactive_no_flow_2_10_0_0: flow_2_10_0_0 - 1000 edge_2_10_0_0 <= 0
 inactive_no_flow_3_1_0_0: flow_3_1_0_0 - 1000 edge_3_1_0_0 <= 0
 inactive_no_flow_3_2_0_0: flow_3_2_0_0 - 1000 edge_3_2_0_0 <= 0
 inactive_no_flow_3_4_0_0: flow_3_4_0_0 - 1000 edge_3_4_0_0 <= 0
 inactive_no_flow_3_5_0_0: flow_3_5_0_0 - 1000 edge_3_5_0_0 <= 0
 inactive_no_flow_3_7_0_0: flow_3_7_0_0 - 1000 edge_3_7_0_0 <= 0
 inactive_no_flow_3_8_0_0: flow_3_8_0_0 - 1000 edge_3_8_0_0 <= 0
 inactive_no_flow_3_10_0_0: flow_3_10_0_0 - 1000 edge_3_10_0_0 <= 0
 inactive_no_flow_3_12_0_0: flow_3_12_0_0 - 1000 edge_3_12_0_0 <= 0
 inactive_no_flow_3_13_0_0: flow_3_13_0_0 - 1000 edge_3_13_0_0 <= 0
 inactive_no_flow_3_14_0_0: flow_3_14_0_0 - 1000 edge_3_14_0_0 <= 0
 inactive_no_flow_3_16_0_0: flow_3_16_0_0 - 1000 edge_3_16_0_0 <= 0
 inactive_no_flow_3_18_0_0: flow_3_18_0_0 - 1000 edge_3_18_0_0 <= 0
 inactive_no_flow_3_19_0_0: flow_3_19_0_0 - 1000 edge_3_19_0_0 <= 0
 inactive_no_flow_4_1_0_0: flow_4_1_0_0 - 1000 edge_4_1_0_0 <= 0
 inactive_no_flow_4_2_0_0: flow_4_2_0_0 - 1000 edge_4_2_0_0 <= 0
 inactive_no_flow_4_3_0_0: flow_4_3_0_0 - 1000 edge_4_3_0_0 <= 0
 inactive_no_flow_4_5_0_0: flow_4_5_0_0 - 1000 edge_4_5_0_0 <= 0
 inactive_no_flow_4_7_0_0: flow_4_7_0_0 - 1000 edge_4_7_0_0 <= 0
 inactive_no_flow_4_8_0_0: flow_4_8_0_0 - 1000 edge_4_8_0_0 <= 0
 inactive_no_flow_4_10_0_0: flow_4_10_0_0 - 1000 edge_4_10_0_0 <= 0
 inactive_no_flow_4_12_0_0: flow_4_12_0_0 - 1000 edge_4_12_0_0 <= 0
 inactive_no_flow_4_13_0_0: flow_4_13_0_0 - 1000 edge_4_13_0_0 <= 0
 inactive_no_flow_4_14_0_0: flow_4_14_0_0 - 1000 edge_4_14_0_0 <= 0
 inactive_no_flow_4_16_0_0: flow_4_16_0_0 - 1000 edge_4_16_0_0 <= 0
 inactive_no_flow_4_18_0_0: flow_4_18_0_0 - 1000 edge_4_18_0_0 <= 0
 inactive_no_flow_4_19_0_0: flow_4_19_0_0 - 1000 edge_4_19_0_0 <= 0
 inactive_no_flow_5_1_0_0: flow_5_1_0_0 - 1000 edge_5_1_0_0 <= 0
 inactive_no_flow_5_2_0_0: flow_5_2_0_0 - 1000 edge_5_2_0_0 <= 0
 inactive_no_flow_5_3_0_0: flow_5_3_0_0 - 1000 edge_5_3_0_0 <= 0
 inactive_no_flow_5_4_0_0: flow_5_4_0_0 - 1000 edge_5_4_0_0 <= 0
 inactive_no_flow_5_7_0_0: flow_5_7_0_0 - 1000 edge_5_7_0_0 <= 0
 inactive_no_flow_5_8_0_0: flow_5_8_0_0 - 1000 edge_5_8_0_0 <= 0
 inactive_no_flow_5_10_0_0: flow_5_10_0_0 - 1000 edge_5_10_0_0 <= 0
 inactive_no_flow_5_12_0_0: flow_5_12_0_0 - 1000 edge_5_12_0_0 <= 0
 inactive_no_flow_5_13_0_0: flow_5_13_0_0 - 1000 edge_5_13_0_0 <= 0
 inactive_no_flow_5_14_0_0: flow_5_14_0_0 - 1000 edge_5_14_0_0 <= 0
 inactive_no_flow_5_15_0_0: flow_5_15_0_0 - 1000 edge_5_15_0_0 <= 0
 inactive_no_flow_5_16_0_0: flow_5_16_0_0 - 1000 edge_5_16_0_0 <= 0
 inactive_no_flow_5_17_0_0: flow_5_17_0_0 - 1000 edge_5_17_0_0 <= 0
 inactive_no_flow_5_18_0_0: flow_5_18_0_0 - 1000 edge_5_18_0_0 <= 0
 inactive_no_flow_5_19_0_0: flow_5_19_0_0 - 1000 edge_5_19_0_0 <= 0
 inactive_no_flow_7_1_0_0: flow_7_1_0_0 - 1000 edge_7_1_0_0 <= 0
 inactive_no_flow_7_2_0_0: flow_7_2_0_0 - 1000 edge_7_2_0_0 <= 0
 inactive_no_flow_7_3_0_0: flow_7_3_0_0 - 1000 edge_7_3_0_0 <= 0
 inactive_no_flow_7_4_0_0: flow_7_4_0_0 - 1000 edge_7_4_0_0 <= 0
 inactive_no_flow_7_5_0_0: flow_7_5_0_0 - 1000 edge_7_5_0_0 <= 0
 inactive_no_flow_7_8_0_0: flow_7_8_0_0 - 1000 edge_7_8_0_0 <= 0
 inactive_no_flow_7_10_0_0: flow_7_10_0_0 - 1000 edge_7_10_0_0 <= 0
 inactive_no_flow_7_12_0_0: flow_7_12_0_0 - 1000 edge_7_12_0_0 <= 0
 inactive_no_flow_7_14_0_0: flow_7_14_0_0 - 1000 edge_7_14_0_0 <= 0
 inactive_no_flow_7_16_0_0: flow_7_16_0_0 - 1000 edge_7_16_0_0 <= 0
 inactive_no_flow_7_18_0_0: flow_7_18_0_0 - 1000 edge_7_18_0_0 <= 0
 inactive_no_flow_7_19_0_0: flow_7_19_0_0 - 1000 edge_7_19_0_0 <= 0
 inactive_no_flow_8_2_0_0: flow_8_2_0_0 - 1000 edge_8_2_0_0 <= 0
 inactive_no_flow_8_3_0_0: flow_8_3_0_0 - 1000 edge_8_3_0_0 <= 0
 inactive_no_flow_8_4_0_0: flow_8_4_0_0 - 1000 edge_8_4_0_0 <= 0
 inactive_no_flow_8_10_0_0: flow_8_10_0_0 - 1000 edge_8_10_0_0 <= 0
 inactive_no_flow_10_1_0_0: flow_10_1_0_0 - 1000 edge_10_1_0_0 <= 0
 inactive_no_flow_10_2_0_0: flow_10_2_0_0 - 1000 edge_10_2_0_0 <= 0
 inactive_no_flow_10_3_0_0: flow_10_3_0_0 - 1000 edge_10_3_0_0 <= 0
 inactive_no_flow_10_4_0_0: flow_10_4_0_0 - 1000 edge_10_4_0_0 <= 0
 inactive_no_flow_10_5_0_0: flow_10_5_0_0 - 1000 edge_10_5_0_0 <= 0
 inactive_no_flow_10_7_0_0: flow_10_7_0_0 - 1000 edge_10_7_0_0 <= 0
 inactive_no_flow_10_8_0_0: flow_10_8_0_0 - 1000 edge_10_8_0_0 <= 0
 inactive_no_flow_10_12_0_0: flow_10_12_0_0 - 1000 edge_10_12_0_0 <= 0
 inactive_no_flow_10_13_0_0: flow_10_13_0_0 - 1000 edge_10_13_0_0 <= 0
 inactive_no_flow_10_14_0_0: flow_10_14_0_0 - 1000 edge_10_14_0_0 <= 0
 inactive_no_flow_10_15_0_0: flow_10_15_0_0 - 1000 edge_10_15_0_0 <= 0
 inactive_no_flow_10_16_0_0: flow_10_16_0_0 - 1000 edge_10_16_0_0 <= 0
 inactive_no_flow_10_17_0_0: flow_10_17_0_0 - 1000 edge_10_17_0_0 <= 0
 inactive_no_flow_10_18_0_0: flow_10_18_0_0 - 1000 edge_10_18_0_0 <= 0
 inactive_no_flow_10_19_0_0: flow_10_19_0_0 - 1000 edge_10_19_0_0 <= 0
 inactive_no_flow_12_13_0_0: flow_12_13_0_0 - 1000 edge_12_13_0_0 <= 0
 inactive_no_flow_12_14_0_0: flow_12_14_0_0 - 1000 edge_12_14_0_0 <= 0
 inactive_no_flow_12_15_0_0: flow_12_15_0_0 - 1000 edge_12_15_0_0 <= 0
 inactive_no_flow_12_17_0_0: flow_12_17_0_0 - 1000 edge_12_17_0_0 <= 0
 inactive_no_flow_13_12_0_0: flow_13_12_0_0 - 1000 edge_13_12_0_0 <= 0
 inactive_no_flow_13_14_0_0: flow_13_14_0_0 - 1000 edge_13_14_0_0 <= 0
 inactive_no_flow_13_15_0_0: flow_13_15_0_0 - 1000 edge_13_15_0_0 <= 0
 inactive_no_flow_13_17_0_0: flow_13_17_0_0 - 1000 edge_13_17_0_0 <= 0
 inactive_no_flow_13_18_0_0: flow_13_18_0_0 - 1000 edge_13_18_0_0 <= 0
 inactive_no_flow_14_2_0_0: flow_14_2_0_0 - 1000 edge_14_2_0_0 <= 0
 inactive_no_flow_14_3_0_0: flow_14_3_0_0 - 1000 edge_14_3_0_0 <= 0
 inactive_no_flow_14_4_0_0: flow_14_4_0_0 - 1000 edge_14_4_0_0 <= 0
 inactive_no_flow_14_5_0_0: flow_14_5_0_0 - 1000 edge_14_5_0_0 <= 0
 inactive_no_flow_14_7_0_0: flow_14_7_0_0 - 1000 edge_14_7_0_0 <= 0
 inactive_no_flow_14_8_0_0: flow_14_8_0_0 - 1000 edge_14_8_0_0 <= 0
 inactive_no_flow_14_12_0_0: flow_14_12_0_0 - 1000 edge_14_12_0_0 <= 0
 inactive_no_flow_14_13_0_0: flow_14_13_0_0 - 1000 edge_14_13_0_0 <= 0
 inactive_no_flow_14_15_0_0: flow_14_15_0_0 - 1000 edge_14_15_0_0 <= 0
 inactive_no_flow_14_16_0_0: flow_14_16_0_0 - 1000 edge_14_16_0_0 <= 0
 inactive_no_flow_14_17_0_0: flow_14_17_0_0 - 1000 edge_14_17_0_0 <= 0
 inactive_no_flow_14_18_0_0: flow_14_18_0_0 - 1000 edge_14_18_0_0 <= 0
 inactive_no_flow_14_19_0_0: flow_14_19_0_0 - 1000 edge_14_19_0_0 <= 0
 inactive_no_flow_15_13_0_0: flow_15_13_0_0 - 1000 edge_15_13_0_0 <= 0
 inactive_no_flow_15_17_0_0: flow_15_17_0_0 - 1000 edge_15_17_0_0 <= 0
 inactive_no_flow_15_19_0_0: flow_15_19_0_0 - 1000 edge_15_19_0_0 <= 0
 inactive_no_flow_16_17_0_0: flow_16_17_0_0 - 1000 edge_16_17_0_0 <= 0
 inactive_no_flow_16_18_0_0: flow_16_18_0_0 - 1000 edge_16_18_0_0 <= 0
 inactive_no_flow_17_1_0_0: flow_17_1_0_0 - 1000 edge_17_1_0_0 <= 0
 inactive_no_flow_17_12_0_0: flow_17_12_0_0 - 1000 edge_17_12_0_0 <= 0
 inactive_no_flow_17_13_0_0: flow_17_13_0_0 - 1000 edge_17_13_0_0 <= 0
 inactive_no_flow_17_14_0_0: flow_17_14_0_0 - 1000 edge_17_14_0_0 <= 0
 inactive_no_flow_17_15_0_0: flow_17_15_0_0 - 1000 edge_17_15_0_0 <= 0
 inactive_no_flow_17_16_0_0: flow_17_16_0_0 - 1000 edge_17_16_0_0 <= 0
 inactive_no_flow_17_18_0_0: flow_17_18_0_0 - 1000 edge_17_18_0_0 <= 0
 inactive_no_flow_17_19_0_0: flow_17_19_0_0 - 1000 edge_17_19_0_0 <= 0
 inactive_no_flow_18_2_0_0: flow_18_2_0_0 - 1000 edge_18_2_0_0 <= 0
 inactive_no_flow_18_3_0_0: flow_18_3_0_0 - 1000 edge_18_3_0_0 <= 0
 inactive_no_flow_18_4_0_0: flow_18_4_0_0 - 1000 edge_18_4_0_0 <= 0
 inactive_no_flow_18_5_0_0: flow_18_5_0_0 - 1000 edge_18_5_0_0 <= 0
 inactive_no_flow_18_7_0_0: flow_18_7_0_0 - 1000 edge_18_7_0_0 <= 0
 inactive_no_flow_18_8_0_0: flow_18_8_0_0 - 1000 edge_18_8_0_0 <= 0
 inactive_no_flow_18_12_0_0: flow_18_12_0_0 - 1000 edge_18_12_0_0 <= 0
 inactive_no_flow_18_13_0_0: flow_18_13_0_0 - 1000 edge_18_13_0_0 <= 0
 inactive_no_flow_18_14_0_0: flow_18_14_0_0 - 1000 edge_18_14_0_0 <= 0
 inactive_no_flow_18_15_0_0: flow_18_15_0_0 - 1000 edge_18_15_0_0 <= 0
 inactive_no_flow_18_16_0_0: flow_18_16_0_0 - 1000 edge_18_16_0_0 <= 0
 inactive_no_flow_18_17_0_0: flow_18_17_0_0 - 1000 edge_18_17_0_0 <= 0
 inactive_no_flow_18_19_0_0: flow_18_19_0_0 - 1000 edge_18_19_0_0 <= 0
 inactive_no_flow_19_15_0_0: flow_19_15_0_0 - 1000 edge_19_15_0_0 <= 0
Bounds
Binaries
 edge_0_1_0_0 edge_0_5_0_0 edge_0_7_0_0 edge_0_10_0_0 edge_1_2_0_0
 edge_1_3_0_0 edge_1_4_0_0 edge_1_5_0_0 edge_1_7_0_0 edge_1_10_0_0
 edge_1_15_0_0 edge_1_17_0_0 edge_2_1_0_0 edge_2_3_0_0 edge_2_4_0_0
 edge_2_5_0_0 edge_2_7_0_0 edge_2_8_0_0 edge_2_10_0_0 edge_3_1_0_0
 edge_3_2_0_0 edge_3_4_0_0 edge_3_5_0_0 edge_3_7_0_0 edge_3_8_0_0
 edge_3_10_0_0 edge_3_12_0_0 edge_3_13_0_0 edge_3_14_0_0 edge_3_16_0_0
 edge_3_18_0_0 edge_3_19_0_0 edge_4_1_0_0 edge_4_2_0_0 edge_4_3_0_0
 edge_4_5_0_0 edge_4_7_0_0 edge_4_8_0_0 edge_4_10_0_0 edge_4_12_0_0
 edge_4_13_0_0 edge_4_14_0_0 edge_4_16_0_0 edge_4_18_0_0 edge_4_19_0_0
 edge_5_1_0_0 edge_5_2_0_0 edge_5_3_0_0 edge_5_4_0_0 edge_5_7_0_0
 edge_5_8_0_0 edge_5_10_0_0 edge_5_12_0_0 edge_5_13_0_0 edge_5_14_0_0
 edge_5_15_0_0 edge_5_16_0_0 edge_5_17_0_0 edge_5_18_0_0 edge_5_19_0_0
 edge_7_1_0_0 edge_7_2_0_0 edge_7_3_0_0 edge_7_4_0_0 edge_7_5_0_0
 edge_7_8_0_0 edge_7_10_0_0 edge_7_12_0_0 edge_7_14_0_0 edge_7_16_0_0
 edge_7_18_0_0 edge_7_19_0_0 edge_8_2_0_0 edge_8_3_0_0 edge_8_4_0_0
 edge_8_10_0_0 edge_10_1_0_0 edge_10_2_0_0 edge_10_3_0_0 edge_10_4_0_0
 edge_10_5_0_0 edge_10_7_0_0 edge_10_8_0_0 edge_10_12_0_0 edge_10_13_0_0
 edge_10_14_0_0 edge_10_15_0_0 edge_10_16_0_0 edge_10_17_0_0 edge_10_18_0_0
 edge_10_19_0_0 edge_12_13_0_0 edge_12_14_0_0 edge_12_15_0_0 edge_12_17_0_0
 edge_13_12_0_0 edge_13_14_0_0 edge_13_15_0_0 edge_13_17_0_0 edge_13_18_0_0
 edge_14_2_0_0 edge_14_3_0_0 edge_14_4_0_0 edge_14_5_0_0 edge_14_7_0_0
 edge_14_8_0_0 edge_14_12_0_0 edge_14_13_0_0 edge_14_15_0_0 edge_14_16_0_0
 edge_14_17_0_0 edge_14_18_0_0 edge_14_19_0_0 edge_15_13_0_0 edge_15_17_0_0
 edge_15_19_0_0 edge_16_17_0_0 edge_16_18_0_0 edge_17_1_0_0 edge_17_12_0_0
 edge_17_13_0_0 edge_17_14_0_0 edge_17_15_0_0 edge_17_16_0_0 edge_17_18_0_0
 edge_17_19_0_0 edge_18_2_0_0 edge_18_3_0_0 edge_18_4_0_0 edge_18_5_0_0
 edge_18_7_0_0 edge_18_8_0_0 edge_18_12_0_0 edge_18_13_0_0 edge_18_14_0_0
 edge_18_15_0_0 edge_18_16_0_0 edge_18_17_0_0 edge_18_19_0_0 edge_19_15_0_0
End
